91 62 67 84 56 
82 12 14 15 11 53 98 55 
51 76 89 18 74 57 
92 50 33 30 32 34 71 93 96 
39 36 40 38 37 35 72 54 81 
69 88 78 79 73 60 100 70 
64 49 22 66 
94 31 29 27 26 28 63 85 95 80 
20 19 48 21 23 25 24 83 
65 52 86 59 87 97 75 58 77 
2 45 46 8 7 6 4 5 3 1 
90 99 9 10 13 16 17 47 
42 44 43 41 61 68 
